Route #1: 105 19 188 57 63 172 83 182 160 184 149 1 165 127 44 88 133 72 139 45 99 31 29 118 131 37
Route #2: 106 119 49 26 117 170 16 14 156 129 108 67 103 10 43 112 73 95 34 128 163 4 102 110 168 120 13 171 66 64
Route #3: 25 183 143 97 78 169 80 147 24 150 30 39 35 109 89 104 142 85 138 159 28 58
Route #4: 46 135 92 81 145 115 144 94 50 21 174 151 137 47 5 176 125 86 77 22 36 12 167 136
Route #5: 51 93 75 121 178 68 6 2 38 101 52 71 177 41 181 70 126 54 48 179 69 55 23 173 157
Route #6: 166 132 134 161 74 158 164 111 113 91 62 100 8 42 152 87 186 141 98 84 148 123
Route #7: 130 56 90 3 96 59 9 114 33 162 20 65 53 124 187 27 15 40 32 61 180 153 18 185 76 146
Route #8: 107 7 154 189 140 17 155 79 116 82 122 60 11 175
Cost 19106
